19
1 0 8
2 0 25
2 1 17
3 0 22
3 1 11
3 2 22
4 0 15
4 1 11
4 2 3
4 3 39
5 0 55
5 1 51
5 2 44
5 3 17
5 4 22
6 0 32
6 1 19
6 2 53
6 3 54
6 4 2
6 5 40
7 0 33
7 1 36
7 2 19
7 3 20
7 4 46
7 5 11
7 6 29
8 0 35
8 1 55
8 2 18
8 3 46
8 4 40
8 5 56
8 6 38
8 7 29
9 0 52
9 1 11
9 2 4
9 3 2
9 4 49
9 5 48
9 6 2
9 7 17
9 8 7
10 0 56
10 1 48
10 2 59
10 3 19
10 4 35
10 5 16
10 6 56
10 7 49
10 8 57
10 9 19
11 0 5
11 1 14
11 2 56
11 3 18
11 4 52
11 5 3
11 6 24
11 7 44
11 8 43
11 9 1
11 10 57
12 0 25
12 1 44
12 2 22
12 3 25
12 4 40
12 5 44
12 6 45
12 7 38
12 8 13
12 9 7
12 10 43
12 11 51
13 0 9
13 1 36
13 2 46
13 3 42
13 4 44
13 5 34
13 6 45
13 7 15
13 8 14
13 9 13
13 10 43
13 11 3
13 12 38
14 0 29
14 1 50
14 2 49
14 3 33
14 4 58
14 5 47
14 6 23
14 7 14
14 8 8
14 9 40
14 10 54
14 11 22
14 12 10
14 13 38
15 0 36
15 1 37
15 2 45
15 3 34
15 4 23
15 5 36
15 6 34
15 7 26
15 8 17
15 9 54
15 10 47
15 11 21
15 12 25
15 13 27
15 14 35
16 0 26
16 1 55
16 2 11
16 3 57
16 4 50
16 5 16
16 6 52
16 7 27
16 8 45
16 9 24
16 10 45
16 11 43
16 12 2
16 13 25
16 14 47
16 15 56
17 0 52
17 1 59
17 2 16
17 3 29
17 4 52
17 5 52
17 6 58
17 7 17
17 8 2
17 9 43
17 10 49
17 11 9
17 12 38
17 13 32
17 14 50
17 15 29
17 16 26
18 0 25
18 1 8
18 2 30
18 3 1
18 4 53
18 5 51
18 6 49
18 7 35
18 8 44
18 9 39
18 10 53
18 11 41
18 12 53
18 13 43
18 14 51
18 15 10
18 16 12
18 17 44
